NAME: random_50_8
TYPE: TSP
COMMENT: random_50_8
DIMENSION: 50
EDGE_WEIGHT_TYPE: EUC_2D
NODE_COORD_SECTION
1 172 5
2 228 52
3 477 68
4 372 192
5 254 45
6 467 145
7 19 474
8 483 240
9 51 106
10 263 398
11 469 304
12 133 204
13 62 143
14 107 56
15 483 148
16 300 418
17 105 438
18 196 499
19 189 243
20 310 430
21 36 308
22 162 467
23 439 325
24 295 55
25 406 167
26 291 126
27 342 490
28 84 435
29 410 14
30 429 239
31 191 367
32 63 48
33 361 455
34 215 275
35 415 190
36 101 159
37 84 133
38 476 139
39 328 341
40 195 247
41 40 313
42 405 280
43 264 227
44 18 355
45 337 123
46 268 231
47 447 203
48 390 294
49 375 396
50 239 218
